param set_len = 18;
param target_sum = 29798373;
param values := [1] 3215508 [2] 1319397 [3] 2425056 [4] 3638308 [5] 4682318 [6] 5821226 [7] 5286018 [8] 614525 [9] 7585296 [10] 12094 [11] 382861 [12] 7363968 [13] 1041360 [14] 185100 [15] 290817 [16] 6456002 [17] 1277968 [18] 8099820 ;
